c File: flat50_3_0.col
c
c SOURCE: Joseph Culberson (joe@cs.ualberta.ca)
c DESCRIPTION: Quasi-random coloring problem
c              generated with flatness = 0
c                             probability = 0.139
c                             known coloring = 3
c                             random seed = 1958
c              Creation Date:  Tue Jun  9 12:22:07 1998
c Maximum degree = 8 Minimum degree = 0
c p edge 50 115
c cnf created by edge2cnf
p cnf 150 545
-1 -2 0
-1 -3 0
-2 -3 0
1 2 3 0
-4 -5 0
-4 -6 0
-5 -6 0
4 5 6 0
-7 -8 0
-7 -9 0
-8 -9 0
7 8 9 0
-10 -11 0
-10 -12 0
-11 -12 0
10 11 12 0
-13 -14 0
-13 -15 0
-14 -15 0
13 14 15 0
-16 -17 0
-16 -18 0
-17 -18 0
16 17 18 0
-19 -20 0
-19 -21 0
-20 -21 0
19 20 21 0
-22 -23 0
-22 -24 0
-23 -24 0
22 23 24 0
-25 -26 0
-25 -27 0
-26 -27 0
25 26 27 0
-28 -29 0
-28 -30 0
-29 -30 0
28 29 30 0
-31 -32 0
-31 -33 0
-32 -33 0
31 32 33 0
-34 -35 0
-34 -36 0
-35 -36 0
34 35 36 0
-37 -38 0
-37 -39 0
-38 -39 0
37 38 39 0
-40 -41 0
-40 -42 0
-41 -42 0
40 41 42 0
-43 -44 0
-43 -45 0
-44 -45 0
43 44 45 0
-46 -47 0
-46 -48 0
-47 -48 0
46 47 48 0
-49 -50 0
-49 -51 0
-50 -51 0
49 50 51 0
-52 -53 0
-52 -54 0
-53 -54 0
52 53 54 0
-55 -56 0
-55 -57 0
-56 -57 0
55 56 57 0
-58 -59 0
-58 -60 0
-59 -60 0
58 59 60 0
-61 -62 0
-61 -63 0
-62 -63 0
61 62 63 0
-64 -65 0
-64 -66 0
-65 -66 0
64 65 66 0
-67 -68 0
-67 -69 0
-68 -69 0
67 68 69 0
-70 -71 0
-70 -72 0
-71 -72 0
70 71 72 0
-73 -74 0
-73 -75 0
-74 -75 0
73 74 75 0
-76 -77 0
-76 -78 0
-77 -78 0
76 77 78 0
-79 -80 0
-79 -81 0
-80 -81 0
79 80 81 0
-82 -83 0
-82 -84 0
-83 -84 0
82 83 84 0
-85 -86 0
-85 -87 0
-86 -87 0
85 86 87 0
-88 -89 0
-88 -90 0
-89 -90 0
88 89 90 0
-91 -92 0
-91 -93 0
-92 -93 0
91 92 93 0
-94 -95 0
-94 -96 0
-95 -96 0
94 95 96 0
-97 -98 0
-97 -99 0
-98 -99 0
97 98 99 0
-100 -101 0
-100 -102 0
-101 -102 0
100 101 102 0
-103 -104 0
-103 -105 0
-104 -105 0
103 104 105 0
-106 -107 0
-106 -108 0
-107 -108 0
106 107 108 0
-109 -110 0
-109 -111 0
-110 -111 0
109 110 111 0
-112 -113 0
-112 -114 0
-113 -114 0
112 113 114 0
-115 -116 0
-115 -117 0
-116 -117 0
115 116 117 0
-118 -119 0
-118 -120 0
-119 -120 0
118 119 120 0
-121 -122 0
-121 -123 0
-122 -123 0
121 122 123 0
-124 -125 0
-124 -126 0
-125 -126 0
124 125 126 0
-127 -128 0
-127 -129 0
-128 -129 0
127 128 129 0
-130 -131 0
-130 -132 0
-131 -132 0
130 131 132 0
-133 -134 0
-133 -135 0
-134 -135 0
133 134 135 0
-136 -137 0
-136 -138 0
-137 -138 0
136 137 138 0
-139 -140 0
-139 -141 0
-140 -141 0
139 140 141 0
-142 -143 0
-142 -144 0
-143 -144 0
142 143 144 0
-145 -146 0
-145 -147 0
-146 -147 0
145 146 147 0
-148 -149 0
-148 -150 0
-149 -150 0
148 149 150 0
-61 -1 0
-62 -2 0
-63 -3 0
-91 -1 0
-92 -2 0
-93 -3 0
-106 -1 0
-107 -2 0
-108 -3 0
-121 -1 0
-122 -2 0
-123 -3 0
-136 -1 0
-137 -2 0
-138 -3 0
-142 -1 0
-143 -2 0
-144 -3 0
-55 -4 0
-56 -5 0
-57 -6 0
-73 -4 0
-74 -5 0
-75 -6 0
-76 -4 0
-77 -5 0
-78 -6 0
-100 -4 0
-101 -5 0
-102 -6 0
-118 -4 0
-119 -5 0
-120 -6 0
-136 -4 0
-137 -5 0
-138 -6 0
-145 -4 0
-146 -5 0
-147 -6 0
-148 -4 0
-149 -5 0
-150 -6 0
-85 -7 0
-86 -8 0
-87 -9 0
-91 -7 0
-92 -8 0
-93 -9 0
-109 -7 0
-110 -8 0
-111 -9 0
-124 -7 0
-125 -8 0
-126 -9 0
-148 -7 0
-149 -8 0
-150 -9 0
-55 -10 0
-56 -11 0
-57 -12 0
-64 -10 0
-65 -11 0
-66 -12 0
-85 -10 0
-86 -11 0
-87 -12 0
-109 -10 0
-110 -11 0
-111 -12 0
-115 -10 0
-116 -11 0
-117 -12 0
-139 -10 0
-140 -11 0
-141 -12 0
-142 -10 0
-143 -11 0
-144 -12 0
-73 -13 0
-74 -14 0
-75 -15 0
-85 -13 0
-86 -14 0
-87 -15 0
-88 -13 0
-89 -14 0
-90 -15 0
-112 -13 0
-113 -14 0
-114 -15 0
-88 -16 0
-89 -17 0
-90 -18 0
-91 -16 0
-92 -17 0
-93 -18 0
-70 -19 0
-71 -20 0
-72 -21 0
-82 -19 0
-83 -20 0
-84 -21 0
-112 -19 0
-113 -20 0
-114 -21 0
-121 -19 0
-122 -20 0
-123 -21 0
-142 -19 0
-143 -20 0
-144 -21 0
-64 -22 0
-65 -23 0
-66 -24 0
-76 -22 0
-77 -23 0
-78 -24 0
-79 -22 0
-80 -23 0
-81 -24 0
-97 -22 0
-98 -23 0
-99 -24 0
-139 -22 0
-140 -23 0
-141 -24 0
-55 -25 0
-56 -26 0
-57 -27 0
-70 -25 0
-71 -26 0
-72 -27 0
-73 -25 0
-74 -26 0
-75 -27 0
-76 -25 0
-77 -26 0
-78 -27 0
-112 -25 0
-113 -26 0
-114 -27 0
-139 -25 0
-140 -26 0
-141 -27 0
-64 -28 0
-65 -29 0
-66 -30 0
-100 -28 0
-101 -29 0
-102 -30 0
-67 -31 0
-68 -32 0
-69 -33 0
-79 -31 0
-80 -32 0
-81 -33 0
-121 -31 0
-122 -32 0
-123 -33 0
-133 -31 0
-134 -32 0
-135 -33 0
-61 -34 0
-62 -35 0
-63 -36 0
-97 -34 0
-98 -35 0
-99 -36 0
-148 -34 0
-149 -35 0
-150 -36 0
-103 -37 0
-104 -38 0
-105 -39 0
-127 -37 0
-128 -38 0
-129 -39 0
-133 -37 0
-134 -38 0
-135 -39 0
-136 -37 0
-137 -38 0
-138 -39 0
-64 -40 0
-65 -41 0
-66 -42 0
-88 -40 0
-89 -41 0
-90 -42 0
-97 -40 0
-98 -41 0
-99 -42 0
-76 -43 0
-77 -44 0
-78 -45 0
-100 -43 0
-101 -44 0
-102 -45 0
-55 -46 0
-56 -47 0
-57 -48 0
-106 -46 0
-107 -47 0
-108 -48 0
-112 -46 0
-113 -47 0
-114 -48 0
-115 -46 0
-116 -47 0
-117 -48 0
-145 -46 0
-146 -47 0
-147 -48 0
-79 -49 0
-80 -50 0
-81 -51 0
-100 -49 0
-101 -50 0
-102 -51 0
-103 -49 0
-104 -50 0
-105 -51 0
-106 -49 0
-107 -50 0
-108 -51 0
-139 -49 0
-140 -50 0
-141 -51 0
-142 -49 0
-143 -50 0
-144 -51 0
-112 -52 0
-113 -53 0
-114 -54 0
-136 -52 0
-137 -53 0
-138 -54 0
-115 -55 0
-116 -56 0
-117 -57 0
-133 -55 0
-134 -56 0
-135 -57 0
-121 -58 0
-122 -59 0
-123 -60 0
-103 -61 0
-104 -62 0
-105 -63 0
-127 -61 0
-128 -62 0
-129 -63 0
-139 -61 0
-140 -62 0
-141 -63 0
-136 -64 0
-137 -65 0
-138 -66 0
-142 -64 0
-143 -65 0
-144 -66 0
-133 -67 0
-134 -68 0
-135 -69 0
-106 -70 0
-107 -71 0
-108 -72 0
-139 -70 0
-140 -71 0
-141 -72 0
-145 -70 0
-146 -71 0
-147 -72 0
-115 -73 0
-116 -74 0
-117 -75 0
-124 -73 0
-125 -74 0
-126 -75 0
-139 -73 0
-140 -74 0
-141 -75 0
-142 -73 0
-143 -74 0
-144 -75 0
-106 -76 0
-107 -77 0
-108 -78 0
-118 -76 0
-119 -77 0
-120 -78 0
-112 -79 0
-113 -80 0
-114 -81 0
-121 -79 0
-122 -80 0
-123 -81 0
-109 -82 0
-110 -83 0
-111 -84 0
-112 -82 0
-113 -83 0
-114 -84 0
-121 -82 0
-122 -83 0
-123 -84 0
-127 -85 0
-128 -86 0
-129 -87 0
-127 -88 0
-128 -89 0
-129 -90 0
-133 -91 0
-134 -92 0
-135 -93 0
-118 -94 0
-119 -95 0
-120 -96 0
-127 -94 0
-128 -95 0
-129 -96 0
-139 -94 0
-140 -95 0
-141 -96 0
-103 -97 0
-104 -98 0
-105 -99 0
-112 -97 0
-113 -98 0
-114 -99 0
-145 -97 0
-146 -98 0
-147 -99 0
-148 -97 0
-149 -98 0
-150 -99 0
-118 -100 0
-119 -101 0
-120 -102 0
-142 -100 0
-143 -101 0
-144 -102 0
-148 -100 0
-149 -101 0
-150 -102 0
